p cnf 411 1194
c inputs: 1 2 3 4 5 6 7 8 9 10 11 12 13
c variables for gates: 14 ... 398
c outputs: 399 400 401 402 403 404 405 406 407 408 409 410 411
c random input: 1 2 3 -4 5 6 7 -8 -9 -10 11 12 -13
14 -1 -7 0
-14 1 0
-14 7 0
15 -1 -8 0
-15 1 0
-15 8 0
16 -1 -9 0
-16 1 0
-16 9 0
17 -1 -10 0
-17 1 0
-17 10 0
18 -1 -11 0
-18 1 0
-18 11 0
19 -1 -12 0
-19 1 0
-19 12 0
20 -1 -13 0
-20 1 0
-20 13 0
21 -2 -7 0
-21 2 0
-21 7 0
22 -2 -8 0
-22 2 0
-22 8 0
23 -2 -9 0
-23 2 0
-23 9 0
24 -2 -10 0
-24 2 0
-24 10 0
25 -2 -11 0
-25 2 0
-25 11 0
26 -2 -12 0
-26 2 0
-26 12 0
27 -2 -13 0
-27 2 0
-27 13 0
28 -3 -7 0
-28 3 0
-28 7 0
29 -3 -8 0
-29 3 0
-29 8 0
30 -3 -9 0
-30 3 0
-30 9 0
31 -3 -10 0
-31 3 0
-31 10 0
32 -3 -11 0
-32 3 0
-32 11 0
33 -3 -12 0
-33 3 0
-33 12 0
34 -3 -13 0
-34 3 0
-34 13 0
35 -4 -7 0
-35 4 0
-35 7 0
36 -4 -8 0
-36 4 0
-36 8 0
37 -4 -9 0
-37 4 0
-37 9 0
38 -4 -10 0
-38 4 0
-38 10 0
39 -4 -11 0
-39 4 0
-39 11 0
40 -4 -12 0
-40 4 0
-40 12 0
41 -4 -13 0
-41 4 0
-41 13 0
42 -5 -7 0
-42 5 0
-42 7 0
43 -5 -8 0
-43 5 0
-43 8 0
44 -5 -9 0
-44 5 0
-44 9 0
45 -5 -10 0
-45 5 0
-45 10 0
46 -5 -11 0
-46 5 0
-46 11 0
47 -5 -12 0
-47 5 0
-47 12 0
48 -5 -13 0
-48 5 0
-48 13 0
49 -6 -7 0
-49 6 0
-49 7 0
50 -6 -8 0
-50 6 0
-50 8 0
51 -6 -9 0
-51 6 0
-51 9 0
52 -6 -10 0
-52 6 0
-52 10 0
53 -6 -11 0
-53 6 0
-53 11 0
54 -6 -12 0
-54 6 0
-54 12 0
55 -6 -13 0
-55 6 0
-55 13 0
56 -36 -42 0
-56 36 0
-56 42 0
57 -42 36 0
-57 42 0
-57 -36 0
58 -36 42 0
-58 36 0
-58 -42 0
59 57 58 0
-59 -57 0
-59 -58 0
60 -49 -56 0
-60 49 0
-60 56 0
61 -43 -56 0
-61 43 0
-61 56 0
62 -49 -43 0
-62 49 0
-62 43 0
63 62 61 0
-63 -62 0
-63 -61 0
64 60 -63 0
-64 -60 0
-64 63 0
65 -49 43 0
-65 49 0
-65 -43 0
66 -43 49 0
-66 43 0
-66 -49 0
67 65 66 0
-67 -65 0
-67 -66 0
68 -56 -67 0
-68 56 0
-68 67 0
69 56 67 0
-69 -56 0
-69 -67 0
70 69 68 0
-70 -69 0
-70 -68 0
71 -37 70 0
-71 37 0
-71 -70 0
72 37 70 0
-72 -37 0
-72 -70 0
73 -37 -70 0
-73 37 0
-73 70 0
74 72 73 0
-74 -72 0
-74 -73 0
75 64 -71 0
-75 -64 0
-75 71 0
76 -50 -71 0
-76 50 0
-76 71 0
77 -50 64 0
-77 50 0
-77 -64 0
78 77 76 0
-78 -77 0
-78 -76 0
79 75 -78 0
-79 -75 0
-79 78 0
80 50 64 0
-80 -50 0
-80 -64 0
81 -50 -64 0
-81 50 0
-81 64 0
82 80 81 0
-82 -80 0
-82 -81 0
83 -71 -82 0
-83 71 0
-83 82 0
84 71 82 0
-84 -71 0
-84 -82 0
85 84 83 0
-85 -84 0
-85 -83 0
86 -44 85 0
-86 44 0
-86 -85 0
87 -38 85 0
-87 38 0
-87 -85 0
88 -38 -44 0
-88 38 0
-88 44 0
89 88 87 0
-89 -88 0
-89 -87 0
90 86 -89 0
-90 -86 0
-90 89 0
91 -44 38 0
-91 44 0
-91 -38 0
92 -38 44 0
-92 38 0
-92 -44 0
93 91 92 0
-93 -91 0
-93 -92 0
94 -93 85 0
-94 93 0
-94 -85 0
95 93 -85 0
-95 -93 0
-95 85 0
96 94 95 0
-96 -94 0
-96 -95 0
97 79 90 0
-97 -79 0
-97 -90 0
98 -51 90 0
-98 51 0
-98 -90 0
99 -51 79 0
-99 51 0
-99 -79 0
100 99 98 0
-100 -99 0
-100 -98 0
101 97 -100 0
-101 -97 0
-101 100 0
102 51 79 0
-102 -51 0
-102 -79 0
103 -51 -79 0
-103 51 0
-103 79 0
104 103 102 0
-104 -103 0
-104 -102 0
105 90 -104 0
-105 -90 0
-105 104 0
106 -90 104 0
-106 90 0
-106 -104 0
107 106 105 0
-107 -106 0
-107 -105 0
108 -45 107 0
-108 45 0
-108 -107 0
109 45 107 0
-109 -45 0
-109 -107 0
110 -45 -107 0
-110 45 0
-110 107 0
111 110 109 0
-111 -110 0
-111 -109 0
112 -108 101 0
-112 108 0
-112 -101 0
113 -52 -108 0
-113 52 0
-113 108 0
114 -52 101 0
-114 52 0
-114 -101 0
115 113 114 0
-115 -113 0
-115 -114 0
116 112 -115 0
-116 -112 0
-116 115 0
117 52 101 0
-117 -52 0
-117 -101 0
118 -52 -101 0
-118 52 0
-118 101 0
119 118 117 0
-119 -118 0
-119 -117 0
120 -119 -108 0
-120 119 0
-120 108 0
121 119 108 0
-121 -119 0
-121 -108 0
122 121 120 0
-122 -121 0
-122 -120 0
123 -35 -29 0
-123 35 0
-123 29 0
124 -35 29 0
-124 35 0
-124 -29 0
125 -29 35 0
-125 29 0
-125 -35 0
126 125 124 0
-126 -125 0
-126 -124 0
127 -123 59 0
-127 123 0
-127 -59 0
128 -30 -123 0
-128 30 0
-128 123 0
129 -30 59 0
-129 30 0
-129 -59 0
130 128 129 0
-130 -128 0
-130 -129 0
131 127 -130 0
-131 -127 0
-131 130 0
132 30 59 0
-132 -30 0
-132 -59 0
133 -30 -59 0
-133 30 0
-133 59 0
134 133 132 0
-134 -133 0
-134 -132 0
135 -123 -134 0
-135 123 0
-135 134 0
136 123 134 0
-136 -123 0
-136 -134 0
137 135 136 0
-137 -135 0
-137 -136 0
138 131 74 0
-138 -131 0
-138 -74 0
139 -31 131 0
-139 31 0
-139 -131 0
140 -31 74 0
-140 31 0
-140 -74 0
141 139 140 0
-141 -139 0
-141 -140 0
142 138 -141 0
-142 -138 0
-142 141 0
143 31 74 0
-143 -31 0
-143 -74 0
144 -31 -74 0
-144 31 0
-144 74 0
145 144 143 0
-145 -144 0
-145 -143 0
146 131 -145 0
-146 -131 0
-146 145 0
147 -131 145 0
-147 131 0
-147 -145 0
148 147 146 0
-148 -147 0
-148 -146 0
149 142 96 0
-149 -142 0
-149 -96 0
150 -32 142 0
-150 32 0
-150 -142 0
151 -32 96 0
-151 32 0
-151 -96 0
152 150 151 0
-152 -150 0
-152 -151 0
153 -152 149 0
-153 152 0
-153 -149 0
154 32 96 0
-154 -32 0
-154 -96 0
155 -32 -96 0
-155 32 0
-155 96 0
156 154 155 0
-156 -154 0
-156 -155 0
157 142 -156 0
-157 -142 0
-157 156 0
158 -142 156 0
-158 142 0
-158 -156 0
159 158 157 0
-159 -158 0
-159 -157 0
160 153 111 0
-160 -153 0
-160 -111 0
161 -39 153 0
-161 39 0
-161 -153 0
162 -39 111 0
-162 39 0
-162 -111 0
163 161 162 0
-163 -161 0
-163 -162 0
164 160 -163 0
-164 -160 0
-164 163 0
165 39 111 0
-165 -39 0
-165 -111 0
166 -39 -111 0
-166 39 0
-166 111 0
167 166 165 0
-167 -166 0
-167 -165 0
168 -167 153 0
-168 167 0
-168 -153 0
169 167 -153 0
-169 -167 0
-169 153 0
170 169 168 0
-170 -169 0
-170 -168 0
171 164 122 0
-171 -164 0
-171 -122 0
172 -46 164 0
-172 46 0
-172 -164 0
173 -46 122 0
-173 46 0
-173 -122 0
174 172 173 0
-174 -172 0
-174 -173 0
175 -174 171 0
-175 174 0
-175 -171 0
176 46 122 0
-176 -46 0
-176 -122 0
177 -46 -122 0
-177 46 0
-177 122 0
178 177 176 0
-178 -177 0
-178 -176 0
179 164 -178 0
-179 -164 0
-179 178 0
180 -164 178 0
-180 164 0
-180 -178 0
181 180 179 0
-181 -180 0
-181 -179 0
182 175 116 0
-182 -175 0
-182 -116 0
183 -53 175 0
-183 53 0
-183 -175 0
184 -53 116 0
-184 53 0
-184 -116 0
185 183 184 0
-185 -183 0
-185 -184 0
186 -185 182 0
-186 185 0
-186 -182 0
187 53 116 0
-187 -53 0
-187 -116 0
188 -53 -116 0
-188 53 0
-188 116 0
189 188 187 0
-189 -188 0
-189 -187 0
190 175 -189 0
-190 -175 0
-190 189 0
191 -175 189 0
-191 175 0
-191 -189 0
192 191 190 0
-192 -191 0
-192 -190 0
193 -22 -28 0
-193 22 0
-193 28 0
194 -28 22 0
-194 28 0
-194 -22 0
195 -22 28 0
-195 22 0
-195 -28 0
196 194 195 0
-196 -194 0
-196 -195 0
197 -193 126 0
-197 193 0
-197 -126 0
198 -23 -193 0
-198 23 0
-198 193 0
199 -23 126 0
-199 23 0
-199 -126 0
200 198 199 0
-200 -198 0
-200 -199 0
201 197 -200 0
-201 -197 0
-201 200 0
202 23 126 0
-202 -23 0
-202 -126 0
203 -23 -126 0
-203 23 0
-203 126 0
204 203 202 0
-204 -203 0
-204 -202 0
205 -193 -204 0
-205 193 0
-205 204 0
206 193 204 0
-206 -193 0
-206 -204 0
207 205 206 0
-207 -205 0
-207 -206 0
208 201 137 0
-208 -201 0
-208 -137 0
209 -24 201 0
-209 24 0
-209 -201 0
210 -24 137 0
-210 24 0
-210 -137 0
211 209 210 0
-211 -209 0
-211 -210 0
212 208 -211 0
-212 -208 0
-212 211 0
213 24 137 0
-213 -24 0
-213 -137 0
214 -24 -137 0
-214 24 0
-214 137 0
215 213 214 0
-215 -213 0
-215 -214 0
216 201 -215 0
-216 -201 0
-216 215 0
217 -201 215 0
-217 201 0
-217 -215 0
218 216 217 0
-218 -216 0
-218 -217 0
219 212 148 0
-219 -212 0
-219 -148 0
220 -25 212 0
-220 25 0
-220 -212 0
221 -25 148 0
-221 25 0
-221 -148 0
222 220 221 0
-222 -220 0
-222 -221 0
223 219 -222 0
-223 -219 0
-223 222 0
224 25 148 0
-224 -25 0
-224 -148 0
225 -25 -148 0
-225 25 0
-225 148 0
226 225 224 0
-226 -225 0
-226 -224 0
227 212 -226 0
-227 -212 0
-227 226 0
228 -212 226 0
-228 212 0
-228 -226 0
229 228 227 0
-229 -228 0
-229 -227 0
230 159 223 0
-230 -159 0
-230 -223 0
231 -26 223 0
-231 26 0
-231 -223 0
232 -26 159 0
-232 26 0
-232 -159 0
233 232 231 0
-233 -232 0
-233 -231 0
234 -233 230 0
-234 233 0
-234 -230 0
235 26 159 0
-235 -26 0
-235 -159 0
236 -26 -159 0
-236 26 0
-236 159 0
237 236 235 0
-237 -236 0
-237 -235 0
238 -237 223 0
-238 237 0
-238 -223 0
239 237 -223 0
-239 -237 0
-239 223 0
240 238 239 0
-240 -238 0
-240 -239 0
241 170 234 0
-241 -170 0
-241 -234 0
242 -33 234 0
-242 33 0
-242 -234 0
243 -33 170 0
-243 33 0
-243 -170 0
244 243 242 0
-244 -243 0
-244 -242 0
245 -244 241 0
-245 244 0
-245 -241 0
246 33 170 0
-246 -33 0
-246 -170 0
247 -33 -170 0
-247 33 0
-247 170 0
248 247 246 0
-248 -247 0
-248 -246 0
249 -248 234 0
-249 248 0
-249 -234 0
250 248 -234 0
-250 -248 0
-250 234 0
251 249 250 0
-251 -249 0
-251 -250 0
252 181 245 0
-252 -181 0
-252 -245 0
253 -40 245 0
-253 40 0
-253 -245 0
254 -40 181 0
-254 40 0
-254 -181 0
255 254 253 0
-255 -254 0
-255 -253 0
256 252 -255 0
-256 -252 0
-256 255 0
257 40 181 0
-257 -40 0
-257 -181 0
258 -40 -181 0
-258 40 0
-258 181 0
259 258 257 0
-259 -258 0
-259 -257 0
260 -259 245 0
-260 259 0
-260 -245 0
261 259 -245 0
-261 -259 0
-261 245 0
262 260 261 0
-262 -260 0
-262 -261 0
263 256 192 0
-263 -256 0
-263 -192 0
264 -47 256 0
-264 47 0
-264 -256 0
265 -47 192 0
-265 47 0
-265 -192 0
266 264 265 0
-266 -264 0
-266 -265 0
267 263 -266 0
-267 -263 0
-267 266 0
268 47 192 0
-268 -47 0
-268 -192 0
269 -47 -192 0
-269 47 0
-269 192 0
270 269 268 0
-270 -269 0
-270 -268 0
271 256 -270 0
-271 -256 0
-271 270 0
272 -256 270 0
-272 256 0
-272 -270 0
273 272 271 0
-273 -272 0
-273 -271 0
274 186 267 0
-274 -186 0
-274 -267 0
275 -54 267 0
-275 54 0
-275 -267 0
276 -54 186 0
-276 54 0
-276 -186 0
277 276 275 0
-277 -276 0
-277 -275 0
278 274 -277 0
-278 -274 0
-278 277 0
279 54 186 0
-279 -54 0
-279 -186 0
280 -54 -186 0
-280 54 0
-280 186 0
281 280 279 0
-281 -280 0
-281 -279 0
282 -281 267 0
-282 281 0
-282 -267 0
283 281 -267 0
-283 -281 0
-283 267 0
284 282 283 0
-284 -282 0
-284 -283 0
285 -15 21 0
-285 15 0
-285 -21 0
286 -21 15 0
-286 21 0
-286 -15 0
287 285 286 0
-287 -285 0
-287 -286 0
288 -21 -15 0
-288 21 0
-288 15 0
289 -16 -196 0
-289 16 0
-289 196 0
290 16 196 0
-290 -16 0
-290 -196 0
291 289 290 0
-291 -289 0
-291 -290 0
292 -288 -291 0
-292 288 0
-292 291 0
293 288 291 0
-293 -288 0
-293 -291 0
294 292 293 0
-294 -292 0
-294 -293 0
295 -16 -288 0
-295 16 0
-295 288 0
296 -288 196 0
-296 288 0
-296 -196 0
297 -16 196 0
-297 16 0
-297 -196 0
298 297 296 0
-298 -297 0
-298 -296 0
299 295 -298 0
-299 -295 0
-299 298 0
300 -17 -207 0
-300 17 0
-300 207 0
301 17 207 0
-301 -17 0
-301 -207 0
302 301 300 0
-302 -301 0
-302 -300 0
303 299 -302 0
-303 -299 0
-303 302 0
304 -299 302 0
-304 299 0
-304 -302 0
305 304 303 0
-305 -304 0
-305 -303 0
306 -17 299 0
-306 17 0
-306 -299 0
307 299 207 0
-307 -299 0
-307 -207 0
308 -17 207 0
-308 17 0
-308 -207 0
309 307 308 0
-309 -307 0
-309 -308 0
310 306 -309 0
-310 -306 0
-310 309 0
311 -18 -218 0
-311 18 0
-311 218 0
312 18 218 0
-312 -18 0
-312 -218 0
313 312 311 0
-313 -312 0
-313 -311 0
314 310 -313 0
-314 -310 0
-314 313 0
315 -310 313 0
-315 310 0
-315 -313 0
316 315 314 0
-316 -315 0
-316 -314 0
317 -18 310 0
-317 18 0
-317 -310 0
318 310 218 0
-318 -310 0
-318 -218 0
319 -18 218 0
-319 18 0
-319 -218 0
320 318 319 0
-320 -318 0
-320 -319 0
321 -320 317 0
-321 320 0
-321 -317 0
322 -19 -229 0
-322 19 0
-322 229 0
323 19 229 0
-323 -19 0
-323 -229 0
324 322 323 0
-324 -322 0
-324 -323 0
325 321 -324 0
-325 -321 0
-325 324 0
326 -321 324 0
-326 321 0
-326 -324 0
327 326 325 0
-327 -326 0
-327 -325 0
328 -19 321 0
-328 19 0
-328 -321 0
329 229 321 0
-329 -229 0
-329 -321 0
330 -19 229 0
-330 19 0
-330 -229 0
331 330 329 0
-331 -330 0
-331 -329 0
332 328 -331 0
-332 -328 0
-332 331 0
333 -20 -240 0
-333 20 0
-333 240 0
334 20 240 0
-334 -20 0
-334 -240 0
335 334 333 0
-335 -334 0
-335 -333 0
336 332 -335 0
-336 -332 0
-336 335 0
337 -332 335 0
-337 332 0
-337 -335 0
338 337 336 0
-338 -337 0
-338 -336 0
339 -20 332 0
-339 20 0
-339 -332 0
340 332 240 0
-340 -332 0
-340 -240 0
341 -20 240 0
-341 20 0
-341 -240 0
342 340 341 0
-342 -340 0
-342 -341 0
343 339 -342 0
-343 -339 0
-343 342 0
344 -27 -251 0
-344 27 0
-344 251 0
345 27 251 0
-345 -27 0
-345 -251 0
346 344 345 0
-346 -344 0
-346 -345 0
347 -346 343 0
-347 346 0
-347 -343 0
348 346 -343 0
-348 -346 0
-348 343 0
349 348 347 0
-349 -348 0
-349 -347 0
350 -27 343 0
-350 27 0
-350 -343 0
351 251 343 0
-351 -251 0
-351 -343 0
352 -27 251 0
-352 27 0
-352 -251 0
353 351 352 0
-353 -351 0
-353 -352 0
354 -353 350 0
-354 353 0
-354 -350 0
355 -34 -262 0
-355 34 0
-355 262 0
356 34 262 0
-356 -34 0
-356 -262 0
357 356 355 0
-357 -356 0
-357 -355 0
358 -357 354 0
-358 357 0
-358 -354 0
359 357 -354 0
-359 -357 0
-359 354 0
360 358 359 0
-360 -358 0
-360 -359 0
361 -34 354 0
-361 34 0
-361 -354 0
362 262 354 0
-362 -262 0
-362 -354 0
363 -34 262 0
-363 34 0
-363 -262 0
364 362 363 0
-364 -362 0
-364 -363 0
365 -364 361 0
-365 364 0
-365 -361 0
366 -41 -273 0
-366 41 0
-366 273 0
367 41 273 0
-367 -41 0
-367 -273 0
368 366 367 0
-368 -366 0
-368 -367 0
369 365 -368 0
-369 -365 0
-369 368 0
370 -365 368 0
-370 365 0
-370 -368 0
371 369 370 0
-371 -369 0
-371 -370 0
372 -41 365 0
-372 41 0
-372 -365 0
373 365 273 0
-373 -365 0
-373 -273 0
374 -41 273 0
-374 41 0
-374 -273 0
375 373 374 0
-375 -373 0
-375 -374 0
376 372 -375 0
-376 -372 0
-376 375 0
377 -48 -284 0
-377 48 0
-377 284 0
378 48 284 0
-378 -48 0
-378 -284 0
379 377 378 0
-379 -377 0
-379 -378 0
380 376 -379 0
-380 -376 0
-380 379 0
381 -376 379 0
-381 376 0
-381 -379 0
382 380 381 0
-382 -380 0
-382 -381 0
383 -48 376 0
-383 48 0
-383 -376 0
384 284 376 0
-384 -284 0
-384 -376 0
385 -48 284 0
-385 48 0
-385 -284 0
386 385 384 0
-386 -385 0
-386 -384 0
387 383 -386 0
-387 -383 0
-387 386 0
388 -55 -278 0
-388 55 0
-388 278 0
389 55 278 0
-389 -55 0
-389 -278 0
390 388 389 0
-390 -388 0
-390 -389 0
391 -390 387 0
-391 390 0
-391 -387 0
392 390 -387 0
-392 -390 0
-392 387 0
393 391 392 0
-393 -391 0
-393 -392 0
394 -55 387 0
-394 55 0
-394 -387 0
395 387 278 0
-395 -387 0
-395 -278 0
396 -55 278 0
-396 55 0
-396 -278 0
397 396 395 0
-397 -396 0
-397 -395 0
398 394 -397 0
-398 -394 0
-398 397 0
-399 14 0
399 -14 0
-400 -287 0
400 287 0
-401 -294 0
401 294 0
-402 -305 0
402 305 0
-403 -316 0
403 316 0
-404 -327 0
404 327 0
-405 -338 0
405 338 0
-406 -349 0
406 349 0
-407 -360 0
407 360 0
-408 -371 0
408 371 0
-409 -382 0
409 382 0
-410 -393 0
410 393 0
-411 -398 0
411 398 0
399 0
400 0
401 0
-402 0
-403 0
-404 0
-405 0
406 0
-407 0
408 0
-409 0
410 0
-411 0
